(set-option :produce-models true); benchmark generated from python API
(set-info :status unknown)
(declare-fun l_1_0_4 () Real)
(declare-fun l_1_0_3 () Real)
(declare-fun l_1_0_9 () Real)
(declare-fun l_1_0_10 () Real)
(declare-fun l_1_0_1 () Real)
(declare-fun _a_0_ () Real)
(declare-fun l_1_0_6 () Real)
(declare-fun l_1_0_11 () Real)
(declare-fun _a_1_ () Real)
(declare-fun l_1_0_8 () Real)
(declare-fun l_1_0_7 () Real)
(declare-fun l_1_0_5 () Real)
(declare-fun l_1_0_2 () Real)
(declare-fun l_1_1_7 () Real)
(declare-fun l_1_1_5 () Real)
(declare-fun l_1_1_4 () Real)
(declare-fun l_1_1_15 () Real)
(declare-fun l_1_1_14 () Real)
(declare-fun l_1_1_13 () Real)
(declare-fun l_1_1_12 () Real)
(declare-fun l_1_1_11 () Real)
(declare-fun l_1_1_10 () Real)
(declare-fun l_1_1_16 () Real)
(declare-fun l_1_1_9 () Real)
(declare-fun l_1_1_8 () Real)
(declare-fun l_1_1_6 () Real)
(declare-fun l_1_1_2 () Real)
(declare-fun l_1_1_1 () Real)
(declare-fun l_1_1_3 () Real)
(declare-fun l_1_1_17 () Real)
(declare-fun l_1_2_8 () Real)
(declare-fun l_1_2_7 () Real)
(declare-fun l_1_2_2 () Real)
(declare-fun l_1_2_16 () Real)
(declare-fun l_1_2_15 () Real)
(declare-fun l_1_2_10 () Real)
(declare-fun l_1_2_9 () Real)
(declare-fun l_1_2_4 () Real)
(declare-fun l_1_2_12 () Real)
(declare-fun l_1_2_11 () Real)
(declare-fun l_1_2_1 () Real)
(declare-fun l_1_2_5 () Real)
(declare-fun l_1_2_3 () Real)
(declare-fun l_1_2_14 () Real)
(declare-fun l_1_2_13 () Real)
(declare-fun l_1_2_6 () Real)
(declare-fun l_1_2_17 () Real)
(assert
 (let ((?x24 (* 80.0 l_1_0_4)))
 (let ((?x25 (* 80.0 l_1_0_3)))
 (let ((?x489 (- (- _a_0_ (* 80.0 l_1_0_1)) (* (* 2.0 l_1_0_10) l_1_0_9))))
 (= (- (- ?x489 ?x25) ?x24) 0.0)))))
(assert
 (let ((?x363 (* 6400.0 l_1_0_6)))
 (let ((?x358 (* l_1_0_11 l_1_0_11)))
 (let ((?x360 (+ (- (- (+ _a_1_ l_1_0_1) (* l_1_0_10 l_1_0_10)) ?x358) l_1_0_3)))
 (= (- (+ ?x360 l_1_0_4) ?x363) 0.0)))))
(assert
 (let ((?x333 (* l_1_0_9 l_1_0_9)))
 (= (- (- (- (- (- l_1_0_2) l_1_0_5) l_1_0_7) l_1_0_8) ?x333) 0.0)))
(assert
 (= (* 160.0 l_1_0_6) 0.0))
(assert
 (= (- l_1_0_6) 0.0))
(assert
 (>= l_1_0_1 0.0))
(assert
 (>= l_1_0_2 0.0))
(assert
 (>= l_1_0_3 0.0))
(assert
 (>= l_1_0_4 0.0))
(assert
 (>= l_1_0_5 0.0))
(assert
 (>= l_1_0_6 0.0))
(assert
 (>= l_1_0_7 0.0))
(assert
 (>= l_1_0_8 0.0))
(assert
 (>= l_1_0_9 0.0))
(assert
 (>= l_1_0_11 0.0))
(assert
 (let ((?x197 (* 6724.0 l_1_1_7)))
 (let ((?x235 (* l_1_1_15 l_1_1_15)))
 (let ((?x289 (* 82.0 l_1_1_12)))
 (let ((?x225 (- (+ (+ (* 82.0 l_1_1_10) (* 82.0 l_1_1_11)) ?x289) l_1_1_13)))
 (let ((?x236 (- (- (- (- (- (- ?x225 l_1_1_14) ?x235) l_1_1_4) l_1_1_5) ?x197) 790.0)))
 (= ?x236 0.0)))))))
(assert
 (let ((?x141 (* 13284.0 l_1_1_7)))
 (let ((?x164 (* 81.0 l_1_1_12)))
 (let ((?x162 (* 81.0 l_1_1_11)))
 (let ((?x160 (* 81.0 l_1_1_10)))
 (let ((?x154 (* _a_0_ l_1_1_8)))
 (let ((?x152 (+ (- (* (- _a_0_) l_1_1_1) (* _a_0_ l_1_1_2)) (* (* 82.0 _a_0_) l_1_1_6))))
 (let ((?x163 (+ (+ (+ (- ?x152 ?x154) (* (* 82.0 _a_0_) l_1_1_9)) ?x160) ?x162)))
 (let ((?x134 (- (- (- (+ ?x163 ?x164) (* (* 2.0 l_1_1_15) l_1_1_16)) ?x141) 69.0)))
 (= ?x134 0.0))))))))))
(assert
 (let ((?x381 (* 6397.0 l_1_1_7)))
 (let ((?x40 (* l_1_1_17 l_1_1_17)))
 (let ((?x37 (* l_1_1_16 l_1_1_16)))
 (let ((?x84 (* _a_1_ l_1_1_8)))
 (let ((?x33 (- (- (- (* (- _a_1_) l_1_1_1) (* _a_1_ l_1_1_2)) ?x84) l_1_1_10)))
 (let ((?x228 (- (- (- (- (- ?x33 l_1_1_11) l_1_1_12) ?x37) ?x40) (* (* l_1_1_3 _a_0_) _a_0_))))
 (let ((?x382 (- (- ?x228 (* l_1_1_6 (- (* (- 81.0) _a_0_) (* 82.0 _a_1_)))) ?x381)))
 (let ((?x401 (+ (- ?x382 (* l_1_1_9 (- (* (- 81.0) _a_0_) (* 82.0 _a_1_)))) 1.0)))
 (= ?x401 0.0))))))))))
(assert
 (let ((?x460 (* 162.0 l_1_1_7)))
 (let ((?x458 (- (* (* (* (- 2.0) _a_0_) _a_1_) l_1_1_3) (* l_1_1_6 (- _a_0_ (* 81.0 _a_1_))))))
 (= (- (+ ?x458 ?x460) (* l_1_1_9 (- _a_0_ (* 81.0 _a_1_)))) 0.0))))
(assert
 (let ((?x220 (- (- (* (- _a_1_) l_1_1_6) (* _a_1_ l_1_1_9)) (* (* l_1_1_3 _a_1_) _a_1_))))
 (= (- ?x220 l_1_1_7) 0.0)))
(assert
 (>= l_1_1_1 0.0))
(assert
 (>= l_1_1_2 0.0))
(assert
 (>= l_1_1_3 0.0))
(assert
 (>= l_1_1_4 0.0))
(assert
 (>= l_1_1_5 0.0))
(assert
 (>= l_1_1_6 0.0))
(assert
 (>= l_1_1_7 0.0))
(assert
 (>= l_1_1_8 0.0))
(assert
 (>= l_1_1_9 0.0))
(assert
 (>= l_1_1_10 0.0))
(assert
 (>= l_1_1_11 0.0))
(assert
 (>= l_1_1_12 0.0))
(assert
 (>= l_1_1_13 0.0))
(assert
 (>= l_1_1_14 0.0))
(assert
 (>= l_1_1_15 0.0))
(assert
 (>= l_1_1_17 0.0))
(assert
 (let ((?x52 (* 81.0 l_1_2_8)))
 (let ((?x54 (* 13284.0 l_1_2_7)))
 (let ((?x56 (* 81.0 l_1_2_2)))
 (let ((?x51 (* 81.0 l_1_2_10)))
 (let ((?x182 (* _a_0_ l_1_2_4)))
 (let ((?x233 (- (- (* (- _a_0_) l_1_2_1) (* _a_0_ l_1_2_11)) (* (* 82.0 _a_0_) l_1_2_12))))
 (let ((?x74 (+ (+ (- (- ?x233 ?x182) (* (* 82.0 _a_0_) l_1_2_9)) _a_0_) (* 1.0 _a_1_))))
 (let ((?x53 (- (- (- (- ?x74 ?x51) (* (* 2.0 l_1_2_15) l_1_2_16)) ?x56) ?x54)))
 (= (- ?x53 ?x52) 0.0))))))))))
(assert
 (let ((?x548 (* 82.0 l_1_2_8)))
 (let ((?x546 (* 6724.0 l_1_2_7)))
 (let ((?x542 (* 82.0 l_1_2_2)))
 (let ((?x540 (* l_1_2_15 l_1_2_15)))
 (let ((?x538 (- (- (+ (* (/ 1.0 2.0) _a_0_) (* (/ 1.0 4.0) _a_1_)) (* 82.0 l_1_2_10)) l_1_2_13)))
 (let ((?x547 (- (- (- (- (- (- ?x538 l_1_2_14) ?x540) ?x542) l_1_2_3) l_1_2_5) ?x546)))
 (= (- ?x547 ?x548) 0.0))))))))
(assert
 (let ((?x607 (* 6397.0 l_1_2_7)))
 (let ((?x601 (* l_1_2_17 l_1_2_17)))
 (let ((?x599 (* l_1_2_16 l_1_2_16)))
 (let ((?x592 (* (/ 9997291.0 10000000.0) _a_1_)))
 (let ((?x589 (* _a_1_ l_1_2_4)))
 (let ((?x587 (* _a_1_ l_1_2_11)))
 (let ((?x593 (+ (- (- (- (* (- (/ 2709.0 10000000.0)) _a_0_) (* _a_1_ l_1_2_1)) ?x587) ?x589) ?x592)))
 (let ((?x598 (- (+ ?x593 l_1_2_10) (* l_1_2_12 (+ (* 81.0 _a_0_) (* 82.0 _a_1_))))))
 (let ((?x606 (- (+ (- (- ?x598 ?x599) ?x601) l_1_2_2) (* (* l_1_2_6 _a_0_) _a_0_))))
 (let ((?x611 (- (+ (- ?x606 ?x607) l_1_2_8) (* l_1_2_9 (+ (* 81.0 _a_0_) (* 82.0 _a_1_))))))
 (= ?x611 0.0))))))))))))
(assert
 (let ((?x694 (* 162.0 l_1_2_7)))
 (let ((?x693 (- (- (* (* (* (- 2.0) _a_0_) _a_1_) l_1_2_6) (* (/ 2709.0 5000000.0) _a_1_)) (* l_1_2_12 (+ (- _a_0_) (* 81.0 _a_1_))))))
 (= (- (+ ?x693 ?x694) (* l_1_2_9 (+ (- _a_0_) (* 81.0 _a_1_)))) 0.0))))
(assert
 (let ((?x748 (* (/ 7338681.0 100000000000000.0) _a_1_)))
 (let ((?x752 (- (+ (+ (* _a_1_ l_1_2_12) (* _a_1_ l_1_2_9)) ?x748) (* (* l_1_2_6 _a_1_) _a_1_))))
 (= (- ?x752 l_1_2_7) 0.0))))
(assert
 (>= l_1_2_1 0.0))
(assert
 (>= l_1_2_2 0.0))
(assert
 (>= l_1_2_3 0.0))
(assert
 (>= l_1_2_4 0.0))
(assert
 (>= l_1_2_5 0.0))
(assert
 (>= l_1_2_6 0.0))
(assert
 (>= l_1_2_7 0.0))
(assert
 (>= l_1_2_8 0.0))
(assert
 (>= l_1_2_9 0.0))
(assert
 (>= l_1_2_10 0.0))
(assert
 (>= l_1_2_11 0.0))
(assert
 (>= l_1_2_12 0.0))
(assert
 (>= l_1_2_13 0.0))
(assert
 (>= l_1_2_14 0.0))
(assert
 (>= l_1_2_15 0.0))
(assert
 (>= l_1_2_17 0.0))
(check-sat)
(get-model)